119 48 011 1
1
991 113 1
813 114 1
710 115 1
694 116 1
814 117 1
820 118 1
725 119 1
871 108 1
727 109 1
833 110 1
908 111 1
948 112 1
744 113 1
941 114 1
782 115 1
771 116 1
950 117 1
652 118 1
683 119 1
686 108 1
790 109 1
905 110 1
686 111 1
695 112 1
898 113 1
722 114 1
687 115 1
785 116 1
940 117 1
998 118 1
921 119 1
999 108 1
831 109 1
894 110 1
665 111 1
758 112 1
665 113 1
700 114 1
825 115 1
702 116 1
742 117 1
841 118 1
858 119 1
799 108 1
1178 109 1
866 110 1
821 111 1
804 112 1
1
1
1
1
1
1
1
1
1
1
1
1
1
1
1
1
1
1
1
1
1
1
1
1
1
1
1
1
1
1
1
1
1
1
1
1
1
1
1
1
1
1
1
1
1
1
1
1
1
1
1
1
1
1
1
1
1
1
1 9 870 21 685 33 998 45 798
1 10 726 22 789 34 830 46 1177
1 11 832 23 904 35 893 47 865
1 12 907 24 685 36 664 48 820
1 13 947 25 694 37 757 49 803
1 2 990 14 743 26 897 38 664
1 3 812 15 940 27 721 39 699
1 4 709 16 781 28 686 40 824
1 5 693 17 770 29 784 41 701
1 6 813 18 949 30 939 42 741
1 7 819 19 651 31 997 43 840
1 8 724 20 682 32 920 44 857
